(set-logic HORN)
(declare-fun state (Int (Array Int Int) (Array Int Int) (Array Int Int) (Array Int Int) (Array Int Int) (Array Int Int) Int Int (Array Int Int) (Array Int Int) Int Int (Array Int Int) (Array Int Int) Int Int Int Int Int Int Int Int Int Int Int Int Int Int Int Int Int Int Int Int Int Int Int Int Int Int Bool Int Int Int Int Int Int Int Bool Bool Bool Bool Bool (Array Int Int) (Array Int Int) (Array Int Int) Int (Array Int Int) Bool) Bool)
(assert (forall ((|A_22| Int) (|B_22| (Array Int Int)) (|C_22| (Array Int Int)) (|D_22| (Array Int Int)) (|E_22| (Array Int Int)) (|F_22| (Array Int Int)) (|G_22| (Array Int Int)) (|H_22| Int) (|I_22| Int) (|J_22| (Array Int Int)) (|K_22| (Array Int Int)) (|L_22| Int) (|M_22| Int) (|N_22| (Array Int Int)) (|O_22| (Array Int Int)) (|P_22| Int) (|Q_22| Int) (|R_22| Int) (|S_22| Int) (|T_22| Int) (|U_22| Int) (|V_22| Int) (|W_22| Int) (|X_22| Int) (|Y_22| Int) (|Z_22| Int) (|A1_22| Int) (|B1_22| Int) (|C1_22| Int) (|D1_22| Int) (|E1_22| Int) (|F1_22| Int) (|G1_22| Int) (|H1_22| Int) (|I1_22| Int) (|J1_22| Int) (|K1_22| Int) (|L1_22| Int) (|M1_22| Int) (|N1_22| Int) (|O1_22| Int) (|P1_22| Bool) (|Q1_22| Int) (|R1_22| Int) (|S1_22| Int) (|T1_22| Int) (|U1_22| Int) (|V1_22| Int) (|W1_22| Int) (|Y1_18| Bool) (|.loc.5| Bool) (|.loc.6| Bool) (|.loc.7| Bool) (|.loc.8| Bool) (|Y1_11| (Array Int Int)) (|A2_4| (Array Int Int)) (|Z1_6| (Array Int Int)) (|Y1_20| Int) (|Y1_0| (Array Int Int)) (|Y1_4| Bool) (|.x.1110| Int) (|.x.1085| Int) (|.x.1081| (Array Int Int)) (|.x.1079| Int) (|.x.1077| (Array Int Int)) (|.x.1075| Int) (|.x.1073| (Array Int Int)) (|.x.1071| (Array Int Int)) (|.x.1067| Int) (|.x.1069| (Array Int Int)) (|.x.1096| Int) (|X1_22| Bool) (|.x.1109| Int) (|.loc.9| Bool) (|.loc.11| Bool) (|.x.1097| Int) (|.x.1086| Int) (|.x.1094| Int) (|.x.1102| Int) (|.loc.10| Bool) (|.x.1114| Int) (|.x.1070| (Array Int Int)) (|.x.1091| Int) (|.x.1089| Int) (|.x.1112| Int) (|.loc.12| Bool) (|.x.1107| Int) (|.x.1072| (Array Int Int)) (|.x.1099| Int) (|.x.1092| Int) (|.x.1088| Int) (|.x.1103| Int) (|.x.1106| Int) (|.x.1113| Int) (|.x.1105| Int) (|.x.1101| Int) (|.x.1093| Int) (|.x.1104| Int) (|.x.1080| (Array Int Int)) (|.x.1068| (Array Int Int)) (|.x.1108| Bool) (|.x.1082| Int) (|.x.1090| Int) (|.x.1076| (Array Int Int)) (|.x.1095| Int) (|.x.1098| Int) (|.x.1111| Int) (|.x.1115| Int) (|.x.1084| Int) (|.x.1083| Int) (|.x.1078| Int) (|.x.1074| Int) (|.x.1087| Int) (|.x.1100| Int) (|.xtv.1| (Array Int Int)) (|.xtv.2| (Array Int Int)) (|.xtv.3| (Array Int Int)) (|.xtv.4| Int) (|.xtv.5| (Array Int Int)) (|.xtv.6| Bool)) (=> (and (and (and (and .loc.6 (not .loc.5)) (not .loc.7)) (not .loc.8)) (and (and (and (and (and (and (and (= N_22 O_22) (not Y1_18)) (= H_22 I_22)) (= L_22 M_22)) (= D_22 E_22)) (= J_22 K_22)) (= F_22 G_22)) (= B_22 C_22))) (state |A_22| |B_22| |C_22| |D_22| |E_22| |F_22| |G_22| |H_22| |I_22| |J_22| |K_22| |L_22| |M_22| |N_22| |O_22| |P_22| |Q_22| |R_22| |S_22| |T_22| |U_22| |V_22| |W_22| |X_22| |Y_22| |Z_22| |A1_22| |B1_22| |C1_22| |D1_22| |E1_22| |F1_22| |G1_22| |H1_22| |I1_22| |J1_22| |K1_22| |L1_22| |M1_22| |N1_22| |O1_22| |P1_22| |Q1_22| |R1_22| |S1_22| |T1_22| |U1_22| |V1_22| |W1_22| |Y1_18| |.loc.5| |.loc.6| |.loc.7| |.loc.8| |Y1_11| |A2_4| |Z1_6| |Y1_20| |Y1_0| |Y1_4|))))
(assert (forall ((|A_22| Int) (|B_22| (Array Int Int)) (|C_22| (Array Int Int)) (|D_22| (Array Int Int)) (|E_22| (Array Int Int)) (|F_22| (Array Int Int)) (|G_22| (Array Int Int)) (|H_22| Int) (|I_22| Int) (|J_22| (Array Int Int)) (|K_22| (Array Int Int)) (|L_22| Int) (|M_22| Int) (|N_22| (Array Int Int)) (|O_22| (Array Int Int)) (|P_22| Int) (|Q_22| Int) (|R_22| Int) (|S_22| Int) (|T_22| Int) (|U_22| Int) (|V_22| Int) (|W_22| Int) (|X_22| Int) (|Y_22| Int) (|Z_22| Int) (|A1_22| Int) (|B1_22| Int) (|C1_22| Int) (|D1_22| Int) (|E1_22| Int) (|F1_22| Int) (|G1_22| Int) (|H1_22| Int) (|I1_22| Int) (|J1_22| Int) (|K1_22| Int) (|L1_22| Int) (|M1_22| Int) (|N1_22| Int) (|O1_22| Int) (|P1_22| Bool) (|Q1_22| Int) (|R1_22| Int) (|S1_22| Int) (|T1_22| Int) (|U1_22| Int) (|V1_22| Int) (|W1_22| Int) (|Y1_18| Bool) (|.loc.5| Bool) (|.loc.6| Bool) (|.loc.7| Bool) (|.loc.8| Bool) (|Y1_11| (Array Int Int)) (|A2_4| (Array Int Int)) (|Z1_6| (Array Int Int)) (|Y1_20| Int) (|Y1_0| (Array Int Int)) (|Y1_4| Bool) (|.x.1110| Int) (|.x.1085| Int) (|.x.1081| (Array Int Int)) (|.x.1079| Int) (|.x.1077| (Array Int Int)) (|.x.1075| Int) (|.x.1073| (Array Int Int)) (|.x.1071| (Array Int Int)) (|.x.1067| Int) (|.x.1069| (Array Int Int)) (|.x.1096| Int) (|X1_22| Bool) (|.x.1109| Int) (|.loc.9| Bool) (|.loc.11| Bool) (|.x.1097| Int) (|.x.1086| Int) (|.x.1094| Int) (|.x.1102| Int) (|.loc.10| Bool) (|.x.1114| Int) (|.x.1070| (Array Int Int)) (|.x.1091| Int) (|.x.1089| Int) (|.x.1112| Int) (|.loc.12| Bool) (|.x.1107| Int) (|.x.1072| (Array Int Int)) (|.x.1099| Int) (|.x.1092| Int) (|.x.1088| Int) (|.x.1103| Int) (|.x.1106| Int) (|.x.1113| Int) (|.x.1105| Int) (|.x.1101| Int) (|.x.1093| Int) (|.x.1104| Int) (|.x.1080| (Array Int Int)) (|.x.1068| (Array Int Int)) (|.x.1108| Bool) (|.x.1082| Int) (|.x.1090| Int) (|.x.1076| (Array Int Int)) (|.x.1095| Int) (|.x.1098| Int) (|.x.1111| Int) (|.x.1115| Int) (|.x.1084| Int) (|.x.1083| Int) (|.x.1078| Int) (|.x.1074| Int) (|.x.1087| Int) (|.x.1100| Int) (|.xtv.1| (Array Int Int)) (|.xtv.2| (Array Int Int)) (|.xtv.3| (Array Int Int)) (|.xtv.4| Int) (|.xtv.5| (Array Int Int)) (|.xtv.6| Bool)) (=> (and (state |A_22| |B_22| |C_22| |D_22| |E_22| |F_22| |G_22| |H_22| |I_22| |J_22| |K_22| |L_22| |M_22| |N_22| |O_22| |P_22| |Q_22| |R_22| |S_22| |T_22| |U_22| |V_22| |W_22| |X_22| |Y_22| |Z_22| |A1_22| |B1_22| |C1_22| |D1_22| |E1_22| |F1_22| |G1_22| |H1_22| |I1_22| |J1_22| |K1_22| |L1_22| |M1_22| |N1_22| |O1_22| |P1_22| |Q1_22| |R1_22| |S1_22| |T1_22| |U1_22| |V1_22| |W1_22| |Y1_18| |.loc.5| |.loc.6| |.loc.7| |.loc.8| |Y1_11| |A2_4| |Z1_6| |Y1_20| |Y1_0| |Y1_4|) (let ((.def_70 (not .loc.5))) (let ((.def_72 (not .loc.7))) (let ((.def_74 (not .loc.8))) (let ((.def_122 (= D1_22 .x.1096))) (let ((.def_126 (= Q1_22 .x.1109))) (let ((.def_136 (= Y1_20 1))) (let ((.def_140 (not .loc.11))) (let ((.def_142 (not .loc.9))) (let ((.def_146 (= Y1_18 X1_22))) (let ((.def_148 (select F_22 G1_22))) (let ((.def_149 (select .def_148 O1_22))) (let ((.def_150 (= Y1_20 .def_149))) (let ((.def_152 (= Q1_22 0))) (let ((.def_155 (or Y1_18 (and .def_150 (not .def_152))))) (let ((.def_159 (= E1_22 .x.1097))) (let ((.def_163 (= E1_22 2))) (let ((.def_173 (not .loc.6))) (let ((.def_178 (= T_22 .x.1086))) (let ((.def_194 (= B1_22 .x.1094))) (let ((.def_198 (<= .x.1102 20))) (let ((.def_202 (= Y1_20 3))) (let ((.def_203 (not .def_202))) (let ((.def_216 (or Y1_18 .def_150))) (let ((.def_225 (and .def_122 (and .def_178 .def_194)))) (let ((.def_233 (not .loc.10))) (let ((.def_238 (= V1_22 .x.1114))) (let ((.def_240 (= D_22 .x.1070))) (let ((.def_245 (= .x.1070 (store D_22 G1_22 0)))) (let ((.def_249 (and .def_126 (and .def_159 .def_225)))) (let ((.def_261 (= Y_22 .x.1091))) (let ((.def_263 (= W_22 .x.1089))) (let ((.def_266 (= Y_22 0))) (let ((.def_267 (= W_22 0))) (let ((.def_270 (and .def_178 .def_240))) (let ((.def_274 (and .def_126 (and .def_159 (and .def_122 (and .def_194 .def_270)))))) (let ((.def_287 (= T1_22 .x.1112))) (let ((.def_294 (and .def_159 (and .def_122 (and .def_194 (and .def_261 (and .def_263 .def_270))))))) (let ((.def_330 (not .loc.12))) (let ((.def_335 (and .def_178 (and Y1_18 .def_240)))) (let ((.def_343 (and .def_238 (and .def_287 (and .def_126 (and .def_159 (and .def_122 (and .def_194 (and .def_261 (and .def_263 .def_335)))))))))) (let ((.def_365 (+ O1_22 8))) (let ((.def_366 (select N_22 G1_22))) (let ((.def_367 (select .def_366 .def_365))) (let ((.def_369 (select B_22 G1_22))) (let ((.def_370 (select .def_369 .def_365))) (let ((.def_388 (= Z_22 .x.1092))) (let ((.def_390 (= V_22 .x.1088))) (let ((.def_392 (= G1_22 .x.1099))) (let ((.def_395 (= K1_22 .x.1103))) (let ((.def_398 (= N1_22 .x.1106))) (let ((.def_400 (= O1_22 .x.1107))) (let ((.def_455 (= .x.1107 .x.1113))) (let ((.def_458 (= .x.1099 .x.1105))) (let ((.def_464 (and .def_388 (and .def_261 (and .def_263 (and .def_270 .def_390)))))) (let ((.def_485 (= I1_22 .x.1101))) (let ((.def_487 (= A1_22 .x.1093))) (let ((.def_489 (= J1_22 .x.1102))) (let ((.def_492 (= L1_22 .x.1104))) (let ((.def_500 (= (+ J1_22 (* (- 1) .x.1102)) (- 1)))) (let ((.def_524 (= N_22 .x.1080))) (let ((.def_526 (= B_22 .x.1068))) (let ((.def_527 (= F_22 .x.1072))) (let ((.def_529 (and .def_524 (and .def_526 .def_527)))) (let ((.def_534 (select .x.1068 G1_22))) (let ((.def_539 (select .x.1080 G1_22))) (let ((.def_575 (= P1_22 .x.1108))) (let ((.def_577 (= P_22 .x.1082))) (let ((.def_584 (and .def_524 (and .def_527 (and .def_240 .def_526))))) (let ((.def_623 (and .def_194 (and .def_487 (and .def_388 (and .def_261 (and .def_263 (and .def_390 (and .def_178 (and .def_577 .def_584)))))))))) (let ((.def_648 (and .def_122 .def_623))) (let ((.def_707 (not (<= 20 J1_22)))) (let ((.def_741 (and .def_330 (and .def_233 (and .def_146 (and .def_74 (and .def_142 (and .loc.11 (and .def_72 (and .loc.6 (and .loc.5 (and .def_238 (and .def_287 (and .def_126 (and .def_400 (and .def_398 (and .def_492 (and .def_395 (and .def_489 (and .def_485 (and .def_392 (and .def_159 .def_648)))))))))))))))))))))) (let ((.def_753 (= X_22 .x.1090))) (let ((.def_755 (= J_22 .x.1076))) (let ((.def_758 (= C1_22 .x.1095))) (let ((.def_761 (= F1_22 .x.1098))) (let ((.def_764 (= S1_22 .x.1111))) (let ((.def_851 (= L_22 .x.1078))) (let ((.def_853 (= H_22 .x.1074))) (let ((.def_858 (= U_22 .x.1087))) (let ((.def_861 (= H1_22 .x.1100))) (let ((.def_863 (= M1_22 .x.1105))) (let ((.def_865 (= U1_22 .x.1113))) (let ((.def_922 (= Y1_20 0))) (let ((.def_929 (= .x.1068 (store Y1_11 .x.1099 (store (select Y1_11 .x.1099) .x.1107 (select (select .x.1068 .x.1099) .x.1107)))))) (let ((.def_931 (select Z1_6 .x.1099))) (let ((.def_941 (= .x.1080 (store A2_4 .x.1099 (store (select A2_4 .x.1099) .x.1107 (select (select .x.1080 .x.1099) .x.1107)))))) (let ((.def_981 (and .def_330 (and .def_233 (and .def_173 (and .def_146 (and .def_74 (and .def_140 (and .loc.9 (and .def_70 (and .loc.7 (and .def_238 (and .def_865 (and .def_287 (and .def_764 (and .def_126 (and .def_400 (and .def_398 (and .def_863 (and .def_492 (and .def_395 (and .def_485 (and .def_861 (and .def_392 (and .def_761 (and .def_159 (and .def_122 (and .def_758 (and .def_194 (and .def_487 (and .def_388 (and .def_261 (and .def_753 (and .def_263 (and .def_390 (and .def_858 (and .def_178 (and .def_851 (and .def_755 (and .def_240 .def_853)))))))))))))))))))))))))))))))))))))))) (let ((.def_988 (+ O1_22 4))) (let ((.def_1009 (or Y1_18 (and (and (and (and (and .def_500 (and (<= (- 2147483648) Q_22) (and P1_22 (<= Q_22 2147483647)))) (= Y1_20 (select (select Z1_6 G1_22) .def_988))) (= Z1_6 (store F_22 G1_22 (store .def_148 .def_988 Q_22)))) (= A2_4 (store N_22 G1_22 (store .def_366 .def_988 (select (select A2_4 G1_22) .def_988))))) (= Y1_11 (store B_22 G1_22 (store .def_369 .def_988 (select (select Y1_11 G1_22) .def_988)))))))) (and (and (= R1_22 .x.1110) (and (= S_22 .x.1085) (and (= O_22 .x.1081) (and (= M_22 .x.1079) (and (= K_22 .x.1077) (and (= I_22 .x.1075) (and (= G_22 .x.1073) (and (= E_22 .x.1071) (and (= A_22 .x.1067) (= C_22 .x.1069)))))))))) (or (or (or (and (or (and (or (or (or (or (or (or (and (or (and (or (and (or (or (or (and (or (or (or (or (and (or (and (or (and (or (and (or (and (or (and (or (and (or (and (or (and (and (and .def_72 (and .def_70 (and .loc.8 (and (and .def_122 X1_22) .def_126)))) .loc.9) .loc.11) (and (and (and (or X1_22 (not .def_136)) (and .def_74 (and (and (and .loc.5 .loc.7) .def_140) .def_142))) .def_146) .def_155)) (and .loc.6 .def_159)) (and (or Y1_18 (not .def_163)) (and (and .def_146 (and .def_142 (and .def_140 (and .def_72 (and .def_70 (and .loc.8 (and .def_122 .def_126))))))) .def_173))) .def_178) (and (or Y1_18 (= V1_22 .x.1086)) (and .def_146 (and .loc.11 (and .loc.9 (and .def_70 (and .loc.8 (and .loc.7 (and .loc.6 (and .def_126 (and .def_122 .def_159))))))))))) .def_194) (and (and (or (or X1_22 (not .def_198)) .def_203) (and .def_173 (and .def_146 (and .def_142 (and .def_140 (and .def_72 (and .loc.8 (and .loc.5 (and .def_126 (and .def_159 (and .def_122 .def_178))))))))))) .def_216)) .loc.10) (and (or Y1_18 (and .def_152 (= .def_149 .x.1097))) (and (and .def_146 (and .def_74 (and .def_142 (and .def_140 (and .loc.7 (and .loc.6 (and .loc.5 .def_225))))))) .def_233))) (and .def_238 .def_240)) (and (or Y1_18 (and (= .x.1114 0) .def_245)) (and .def_173 (and .def_146 (and .def_142 (and .loc.11 (and .loc.10 (and .loc.8 (and .loc.7 (and .loc.5 .def_249)))))))))) (and .def_261 .def_263)) (and (or Y1_18 (and .def_266 .def_267)) (and .def_233 (and .def_173 (and .def_146 (and .loc.11 (and .loc.9 (and .def_70 (and .loc.8 (and .loc.7 (and .def_238 .def_274))))))))))) .def_287) (and (or X1_22 .def_202) (and .def_233 (and .def_216 (and .def_146 (and .def_74 (and .def_140 (and .loc.9 (and .def_70 (and .loc.7 (and .loc.6 (and .def_238 (and .def_126 .def_294))))))))))))) .loc.12) (and (or X1_22 (and .def_203 (= .x.1109 (select (select .x.1072 .x.1099) (+ .x.1107 4))))) (and (and .def_216 (and .def_146 (and .def_74 (and .loc.11 (and .loc.10 (and .loc.9 (and .def_70 (and .loc.7 (and .loc.6 (and .def_238 .def_294)))))))))) .def_330))) (and .def_146 (and .def_142 (and .loc.12 (and .loc.11 (and .loc.10 (and .def_72 (and .def_70 (and .loc.8 (and .loc.6 .def_343)))))))))) (and .def_233 (and .def_146 (and .loc.12 (and .loc.11 (and .loc.9 (and .def_72 (and .loc.8 (and .loc.6 (and .loc.5 .def_343)))))))))) (and (or Y1_18 (and (= .x.1089 .def_367) (= .x.1091 .def_370))) (and .def_233 (and .def_146 (and .def_142 (and .loc.12 (and .loc.11 (and .def_72 (and .loc.8 (and .loc.6 (and .loc.5 (and .def_238 (and .def_274 .def_287))))))))))))) (and (and (and (and (and .def_388 .def_390) .def_392) .def_395) .def_398) .def_400)) (and (or Y1_18 (and .def_245 (and (= .def_370 .x.1088) (and (= .x.1099 .x.1088) (and (= .def_367 .x.1106) (and (or (not .def_266) (not .def_267)) (= .x.1107 .x.1106))))))) (and .def_173 (and .def_146 (and .def_140 (and .loc.12 (and .loc.10 (and .loc.9 (and .def_70 (and .loc.8 (and .loc.7 (and .def_238 (and .def_249 .def_287))))))))))))) (and .def_233 (and .def_146 (and .def_74 (and .def_140 (and .loc.12 (and .loc.9 (and .def_70 (and .loc.7 (and .loc.6 (and .def_238 (and .def_287 (and .def_126 (and .def_400 (and .def_398 (and .def_395 (and .def_392 (and .def_159 (and .def_122 (and .def_194 (and .def_388 (and .def_261 (and .def_263 (and .def_335 .def_390)))))))))))))))))))))))) (and (or X1_22 (and (and (and .def_198 .def_202) .def_455) .def_458)) (and .def_216 (and .def_173 (and .def_146 (and .def_140 (and .loc.12 (and .loc.10 (and .loc.9 (and .def_72 (and .loc.8 (and .loc.5 (and .def_238 (and .def_287 (and .def_126 (and .def_398 (and .def_395 (and .def_159 (and .def_122 .def_464))))))))))))))))))) (and (and (and .def_485 .def_487) .def_489) .def_492)) (and (or Y1_18 (and (= .x.1099 .def_370) (and (= .x.1107 .def_367) .def_500))) (and .def_330 (and .def_173 (and .def_146 (and .def_74 (and .def_142 (and .loc.11 (and .loc.10 (and .def_72 (and .def_70 (and .def_238 (and .def_287 (and .def_126 (and .def_398 (and .def_395 (and .def_159 (and .def_122 (and .def_194 .def_464))))))))))))))))))) .def_529) (and (or Y1_18 (and (= .x.1072 (store F_22 G1_22 (store .def_148 O1_22 3))) (and (= .x.1068 (store B_22 G1_22 (store .def_369 O1_22 (select .def_534 O1_22)))) (and (= .x.1080 (store N_22 G1_22 (store .def_366 O1_22 (select .def_539 O1_22)))) (and (= U1_22 .x.1107) (= M1_22 .x.1099)))))) (and .def_330 (and .def_173 (and .def_146 (and .def_74 (and .def_142 (and .loc.11 (and .loc.10 (and .loc.7 (and .loc.5 (and .def_238 (and .def_287 (and .def_126 (and .def_398 (and .def_492 (and .def_395 (and .def_489 (and .def_485 (and .def_159 (and .def_122 (and .def_194 (and .def_464 .def_487))))))))))))))))))))))) (and .def_575 .def_577)) (and (or Y1_18 (not P1_22)) (and .def_330 (and .def_233 (and .def_173 (and .def_146 (and .def_74 (and .loc.11 (and .loc.9 (and .def_70 (and .loc.7 (and .def_238 (and .def_287 (and .def_126 (and .def_400 (and .def_398 (and .def_492 (and .def_395 (and .def_489 (and .def_485 (and .def_392 (and .def_159 (and .def_122 (and .def_194 (and .def_487 (and .def_388 (and .def_261 (and .def_263 (and .def_390 (and .def_178 .def_584)))))))))))))))))))))))))))))) (and (or X1_22 .def_136) (and .def_330 (and .def_233 (and .def_155 (and .def_146 (and .def_74 (and .def_142 (and .def_140 (and .loc.7 (and .loc.6 (and .loc.5 (and .def_238 (and .def_287 (and .def_575 (and .def_400 (and .def_398 (and .def_492 (and .def_395 (and .def_489 (and .def_485 (and .def_392 (and .def_159 .def_623))))))))))))))))))))))) (and (or Y1_18 .def_163) (and .def_330 (and .def_233 (and .def_173 (and .def_146 (and .def_142 (and .def_140 (and .def_72 (and .def_70 (and .loc.8 (and .def_238 (and .def_287 (and .def_126 (and .def_575 (and .def_400 (and .def_398 (and .def_492 (and .def_395 (and .def_489 (and .def_485 (and .def_392 .def_648)))))))))))))))))))))) (and .def_330 (and .def_233 (and .def_146 (and .def_74 (and .loc.11 (and .loc.9 (and .def_72 (and .loc.6 (and .loc.5 (and .def_238 (and .def_287 (and .def_126 (and .def_575 (and .def_400 (and .def_398 (and .def_492 (and .def_395 (and .def_489 (and .def_485 (and .def_392 (and .def_159 (and .def_122 (and .def_194 (and .def_487 (and .def_388 (and .def_261 (and .def_263 (and .def_390 (and .def_178 (and .def_577 (and .def_524 (and .def_527 (and .def_240 (and Y1_18 .def_526))))))))))))))))))))))))))))))))))) (and (or Y1_18 (= Y1_4 .def_707)) (and (or X1_22 (and (and (and Y1_4 (= .x.1108 (not (= .x.1082 0)))) (<= .x.1082 2147483647)) (<= (- 2147483648) .x.1082))) .def_741))) (and (or Y1_18 (= .x.1108 .def_707)) (and .def_741 (or X1_22 (not .x.1108))))) (and (and (and (and .def_753 .def_755) .def_758) .def_761) .def_764)) (and (or Y1_18 (and (= .x.1070 (store D_22 .x.1098 1)) (and (= .x.1076 (store J_22 .x.1098 12)) (and (= (select D_22 .x.1098) 0) (and (= .x.1090 0) (and (not (= .x.1098 0)) (and (= .x.1088 .x.1098) (and (not (<= .x.1098 A_22)) (= .x.1106 .x.1090))))))))) (and (or (or X1_22 (not (= .x.1106 0))) (not (= .x.1088 0))) (and (or X1_22 (and (and (and (and (= .x.1099 (select .def_534 .def_365)) (= .x.1107 (select .def_539 .def_365))) (= .x.1068 (store B_22 G1_22 (store .def_369 .def_365 .x.1088)))) (= .x.1080 (store N_22 G1_22 (store .def_366 .def_365 .x.1106)))) (= .x.1072 (store F_22 G1_22 (store .def_148 .def_365 (select (select .x.1072 G1_22) .def_365)))))) (and .def_330 (and .def_173 (and .def_146 (and .def_74 (and .def_140 (and .loc.10 (and .loc.9 (and .def_72 (and .loc.5 (and .def_238 (and .def_287 (and .def_126 (and .def_575 (and .def_492 (and .def_395 (and .def_489 (and .def_485 (and .def_159 (and .def_122 (and .def_194 (and .def_487 (and .def_388 (and .def_261 (and .def_263 (and .def_178 .def_577))))))))))))))))))))))))))))) (and (= W1_22 .x.1115) (and (and (and (and (and (= R_22 .x.1084) (and (= Q_22 .x.1083) (and .def_851 .def_853))) .def_858) .def_861) .def_863) .def_865))) (and (or Y1_18 (and (and (= .x.1078 0) (= .x.1074 0)) (= Y1_0 (store D_22 0 0)))) (and (or X1_22 (and (and (and (and (and (and (and (not (<= .x.1087 .x.1067)) (not (= .x.1087 0))) (= .x.1113 .x.1100)) (= .x.1105 .x.1087)) (= .x.1100 0)) (= (select Y1_0 .x.1087) 0)) (= .x.1076 (store J_22 .x.1087 12))) (= .x.1070 (store Y1_0 .x.1087 1)))) (and (or (or X1_22 (not (= .x.1113 0))) (not (= .x.1105 0))) (and (or X1_22 (and .def_458 (and .def_455 (= .x.1102 0)))) (and .def_330 (and .def_146 (and .def_74 (and .def_140 (and .loc.10 (and .loc.9 (and .def_72 (and .def_70 (and .loc.6 (and .def_178 .def_529))))))))))))))) (and (and (or X1_22 (and (and (and (not .def_922) .def_929) (= .x.1072 (store Z1_6 .x.1099 (store .def_931 .x.1107 1)))) .def_941)) .def_981) .def_1009)) (and (or X1_22 (and .def_941 (and .def_929 (and .def_922 (= .x.1072 (store Z1_6 .x.1099 (store .def_931 .x.1107 2))))))) (and .def_981 .def_1009))))))))))))))))))))))))))))))))))))))))))))))))))))))))))))))))))))))))))))))))))))))))))))))) (state |.x.1067| |.x.1068| |.x.1069| |.x.1070| |.x.1071| |.x.1072| |.x.1073| |.x.1074| |.x.1075| |.x.1076| |.x.1077| |.x.1078| |.x.1079| |.x.1080| |.x.1081| |.x.1082| |.x.1083| |.x.1084| |.x.1085| |.x.1086| |.x.1087| |.x.1088| |.x.1089| |.x.1090| |.x.1091| |.x.1092| |.x.1093| |.x.1094| |.x.1095| |.x.1096| |.x.1097| |.x.1098| |.x.1099| |.x.1100| |.x.1101| |.x.1102| |.x.1103| |.x.1104| |.x.1105| |.x.1106| |.x.1107| |.x.1108| |.x.1109| |.x.1110| |.x.1111| |.x.1112| |.x.1113| |.x.1114| |.x.1115| |X1_22| |.loc.9| |.loc.10| |.loc.11| |.loc.12| |.xtv.1| |.xtv.2| |.xtv.3| |.xtv.4| |.xtv.5| |.xtv.6|))))
(assert (forall ((|A_22| Int) (|B_22| (Array Int Int)) (|C_22| (Array Int Int)) (|D_22| (Array Int Int)) (|E_22| (Array Int Int)) (|F_22| (Array Int Int)) (|G_22| (Array Int Int)) (|H_22| Int) (|I_22| Int) (|J_22| (Array Int Int)) (|K_22| (Array Int Int)) (|L_22| Int) (|M_22| Int) (|N_22| (Array Int Int)) (|O_22| (Array Int Int)) (|P_22| Int) (|Q_22| Int) (|R_22| Int) (|S_22| Int) (|T_22| Int) (|U_22| Int) (|V_22| Int) (|W_22| Int) (|X_22| Int) (|Y_22| Int) (|Z_22| Int) (|A1_22| Int) (|B1_22| Int) (|C1_22| Int) (|D1_22| Int) (|E1_22| Int) (|F1_22| Int) (|G1_22| Int) (|H1_22| Int) (|I1_22| Int) (|J1_22| Int) (|K1_22| Int) (|L1_22| Int) (|M1_22| Int) (|N1_22| Int) (|O1_22| Int) (|P1_22| Bool) (|Q1_22| Int) (|R1_22| Int) (|S1_22| Int) (|T1_22| Int) (|U1_22| Int) (|V1_22| Int) (|W1_22| Int) (|Y1_18| Bool) (|.loc.5| Bool) (|.loc.6| Bool) (|.loc.7| Bool) (|.loc.8| Bool) (|Y1_11| (Array Int Int)) (|A2_4| (Array Int Int)) (|Z1_6| (Array Int Int)) (|Y1_20| Int) (|Y1_0| (Array Int Int)) (|Y1_4| Bool) (|.x.1110| Int) (|.x.1085| Int) (|.x.1081| (Array Int Int)) (|.x.1079| Int) (|.x.1077| (Array Int Int)) (|.x.1075| Int) (|.x.1073| (Array Int Int)) (|.x.1071| (Array Int Int)) (|.x.1067| Int) (|.x.1069| (Array Int Int)) (|.x.1096| Int) (|X1_22| Bool) (|.x.1109| Int) (|.loc.9| Bool) (|.loc.11| Bool) (|.x.1097| Int) (|.x.1086| Int) (|.x.1094| Int) (|.x.1102| Int) (|.loc.10| Bool) (|.x.1114| Int) (|.x.1070| (Array Int Int)) (|.x.1091| Int) (|.x.1089| Int) (|.x.1112| Int) (|.loc.12| Bool) (|.x.1107| Int) (|.x.1072| (Array Int Int)) (|.x.1099| Int) (|.x.1092| Int) (|.x.1088| Int) (|.x.1103| Int) (|.x.1106| Int) (|.x.1113| Int) (|.x.1105| Int) (|.x.1101| Int) (|.x.1093| Int) (|.x.1104| Int) (|.x.1080| (Array Int Int)) (|.x.1068| (Array Int Int)) (|.x.1108| Bool) (|.x.1082| Int) (|.x.1090| Int) (|.x.1076| (Array Int Int)) (|.x.1095| Int) (|.x.1098| Int) (|.x.1111| Int) (|.x.1115| Int) (|.x.1084| Int) (|.x.1083| Int) (|.x.1078| Int) (|.x.1074| Int) (|.x.1087| Int) (|.x.1100| Int) (|.xtv.1| (Array Int Int)) (|.xtv.2| (Array Int Int)) (|.xtv.3| (Array Int Int)) (|.xtv.4| Int) (|.xtv.5| (Array Int Int)) (|.xtv.6| Bool)) (=> (state |A_22| |B_22| |C_22| |D_22| |E_22| |F_22| |G_22| |H_22| |I_22| |J_22| |K_22| |L_22| |M_22| |N_22| |O_22| |P_22| |Q_22| |R_22| |S_22| |T_22| |U_22| |V_22| |W_22| |X_22| |Y_22| |Z_22| |A1_22| |B1_22| |C1_22| |D1_22| |E1_22| |F1_22| |G1_22| |H1_22| |I1_22| |J1_22| |K1_22| |L1_22| |M1_22| |N1_22| |O1_22| |P1_22| |Q1_22| |R1_22| |S1_22| |T1_22| |U1_22| |V1_22| |W1_22| |Y1_18| |.loc.5| |.loc.6| |.loc.7| |.loc.8| |Y1_11| |A2_4| |Z1_6| |Y1_20| |Y1_0| |Y1_4|) (not (and Y1_18 (and .loc.8 (and .loc.7 (and .loc.5 .loc.6))))))))
(check-sat)
